\ Exact one-hot deterministic governed stochastic program
Minimize
 obj: 2344.9811504 z_0 + 1166.93865889 z_1 + 959.297986451 z_2 + 5770.92344352 z_3 + 1166.93865889 z_4 + 952.713228877 z_5 + 568.029018477 z_6 + 3090.96112864 z_7 + 959.297986451 z_8 + 568.029018477 z_9 + 435.044734925 z_10 + 1659.24942754 z_11 + 5770.92344352 z_12 + 3090.96112864 z_13 + 1659.24942754 z_14 + 5858.324688 z_15 + 1166.93865889 z_16 + 952.713228877 z_17 + 568.029018477 z_18 + 3090.96112864 z_19 + 952.713228877 z_20 + 561.284238886 z_21 + 428.140552902 z_22 + 1653.15239036 z_23 + 568.029018477 z_24 + 428.140552902 z_25 + 457.090931674 z_26 + 957.659493958 z_27 + 3090.96112864 z_28 + 1653.15239036 z_29 + 957.659493958 z_30 + 5790.920408 z_31 + 959.297986451 z_32 + 568.029018477 z_33 + 435.044734925 z_34 + 1659.24942754 z_35 + 568.029018477 z_36 + 428.140552902 z_37 + 457.090931674 z_38 + 957.659493958 z_39 + 435.044734925 z_40 + 457.090931674 z_41 + 887.790317946 z_42 + 572.881937382 z_43 + 1659.24942754 z_44 + 957.659493958 z_45 + 572.881937382 z_46 + 3114.40141136 z_47 + 5770.92344352 z_48 + 3090.96112864 z_49 + 1659.24942754 z_50 + 5858.324688 z_51 + 3090.96112864 z_52 + 1653.15239036 z_53 + 957.659493958 z_54 + 5790.920408 z_55 + 1659.24942754 z_56 + 957.659493958 z_57 + 572.881937382 z_58 + 3114.40141136 z_59 + 5864.17764 z_60 + 5796.77336 z_61 + 3120.25436336 z_62 + 9297.561952 z_63 + 1166.93865889 z_64 + 952.713228877 z_65 + 568.029018477 z_66 + 3090.96112864 z_67 + 952.713228877 z_68 + 561.284238886 z_69 + 428.140552902 z_70 + 1653.15239036 z_71 + 568.029018477 z_72 + 428.140552902 z_73 + 457.090931674 z_74 + 957.659493958 z_75 + 3090.96112864 z_76 + 1653.15239036 z_77 + 957.659493958 z_78 + 5790.920408 z_79 + 952.713228877 z_80 + 561.284238886 z_81 + 428.140552902 z_82 + 1653.15239036 z_83 + 561.284238886 z_84 + 421.276893824 z_85 + 335.568084832 z_86 + 1334.1966935 z_87 + 428.140552902 z_88 + 335.568084832 z_89 + 880.75953408 z_90 + 760.969157792 z_91 + 1653.15239036 z_92 + 1334.1966935 z_93 + 760.969157792 z_94 + 3109.25846688 z_95 + 568.029018477 z_96 + 428.140552902 z_97 + 457.090931674 z_98 + 957.659493958 z_99 + 428.140552902 z_100 + 335.568084832 z_101 + 880.75953408 z_102 + 760.969157792 z_103 + 457.090931674 z_104 + 880.75953408 z_105 + 859.778005472 z_106 + 432.92412544 z_107 + 957.659493958 z_108 + 760.969157792 z_109 + 432.92412544 z_110 + 2358.83875901 z_111 + 3090.96112864 z_112 + 1653.15239036 z_113 + 957.659493958 z_114 + 5790.920408 z_115 + 1653.15239036 z_116 + 1334.1966935 z_117 + 760.969157792 z_118 + 3109.25846688 z_119 + 957.659493958 z_120 + 760.969157792 z_121 + 432.92412544 z_122 + 2358.83875901 z_123 + 5790.920408 z_124 + 3109.25846688 z_125 + 2358.83875901 z_126 + 9199.654616 z_127 + 959.297986451 z_128 + 568.029018477 z_129 + 435.044734925 z_130 + 1659.24942754 z_131 + 568.029018477 z_132 + 428.140552902 z_133 + 457.090931674 z_134 + 957.659493958 z_135 + 435.044734925 z_136 + 457.090931674 z_137 + 887.790317946 z_138 + 572.881937382 z_139 + 1659.24942754 z_140 + 957.659493958 z_141 + 572.881937382 z_142 + 3114.40141136 z_143 + 568.029018477 z_144 + 428.140552902 z_145 + 457.090931674 z_146 + 957.659493958 z_147 + 428.140552902 z_148 + 335.568084832 z_149 + 880.75953408 z_150 + 760.969157792 z_151 + 457.090931674 z_152 + 880.75953408 z_153 + 859.778005472 z_154 + 432.92412544 z_155 + 957.659493958 z_156 + 760.969157792 z_157 + 432.92412544 z_158 + 1668.07075901 z_159 + 435.044734925 z_160 + 457.090931674 z_161 + 887.790317946 z_162 + 572.881937382 z_163 + 457.090931674 z_164 + 880.75953408 z_165 + 859.778005472 z_166 + 432.92412544 z_167 + 887.790317946 z_168 + 859.778005472 z_169 + 881.601067264 z_170 + 461.802488928 z_171 + 572.881937382 z_172 + 432.92412544 z_173 + 461.802488928 z_174 + 1345.62026336 z_175 + 1659.24942754 z_176 + 957.659493958 z_177 + 572.881937382 z_178 + 3114.40141136 z_179 + 957.659493958 z_180 + 760.969157792 z_181 + 432.92412544 z_182 + 2358.83875901 z_183 + 572.881937382 z_184 + 432.92412544 z_185 + 461.802488928 z_186 + 1345.62026336 z_187 + 3114.40141136 z_188 + 2358.83875901 z_189 + 1345.62026336 z_190 + 5797.434828 z_191 + 5778.44866752 z_192 + 3098.48635264 z_193 + 1699.82576194 z_194 + 5865.849912 z_195 + 3098.48635264 z_196 + 1660.67761436 z_197 + 965.184717958 z_198 + 5798.445632 z_199 + 1699.82576194 z_200 + 965.184717958 z_201 + 580.407161382 z_202 + 3121.92663536 z_203 + 5865.849912 z_204 + 5798.445632 z_205 + 3121.92663536 z_206 + 9297.561952 z_207 + 3098.48635264 z_208 + 1660.67761436 z_209 + 965.184717958 z_210 + 5798.445632 z_211 + 1660.67761436 z_212 + 1341.7219175 z_213 + 768.494381792 z_214 + 3116.78369088 z_215 + 965.184717958 z_216 + 768.494381792 z_217 + 440.44934944 z_218 + 2399.41509341 z_219 + 5798.445632 z_220 + 3116.78369088 z_221 + 2399.41509341 z_222 + 9207.17984 z_223 + 1699.82576194 z_224 + 965.184717958 z_225 + 580.407161382 z_226 + 3121.92663536 z_227 + 965.184717958 z_228 + 768.494381792 z_229 + 440.44934944 z_230 + 2399.41509341 z_231 + 580.407161382 z_232 + 440.44934944 z_233 + 878.359712928 z_234 + 1353.14548736 z_235 + 3121.92663536 z_236 + 2399.41509341 z_237 + 1353.14548736 z_238 + 5804.960052 z_239 + 5873.375136 z_240 + 5805.970856 z_241 + 3129.45185936 z_242 + 9299.234224 z_243 + 5805.970856 z_244 + 3124.30891488 z_245 + 2532.85328381 z_246 + 9214.705064 z_247 + 3129.45185936 z_248 + 2532.85328381 z_249 + 1360.67071136 z_250 + 5812.485276 z_251 + 9306.759448 z_252 + 9222.230288 z_253 + 5820.0105 z_254 + 9316.10912 z_255
Subject To
 one_sequence: z_0 + z_1 + z_2 + z_3 + z_4 + z_5 + z_6 + z_7 + z_8 + z_9 + z_10 + z_11 + z_12 + z_13 + z_14 + z_15 + z_16 + z_17 + z_18 + z_19 + z_20 + z_21 + z_22 + z_23 + z_24 + z_25 + z_26 + z_27 + z_28 + z_29 + z_30 + z_31 + z_32 + z_33 + z_34 + z_35 + z_36 + z_37 + z_38 + z_39 + z_40 + z_41 + z_42 + z_43 + z_44 + z_45 + z_46 + z_47 + z_48 + z_49 + z_50 + z_51 + z_52 + z_53 + z_54 + z_55 + z_56 + z_57 + z_58 + z_59 + z_60 + z_61 + z_62 + z_63 + z_64 + z_65 + z_66 + z_67 + z_68 + z_69 + z_70 + z_71 + z_72 + z_73 + z_74 + z_75 + z_76 + z_77 + z_78 + z_79 + z_80 + z_81 + z_82 + z_83 + z_84 + z_85 + z_86 + z_87 + z_88 + z_89 + z_90 + z_91 + z_92 + z_93 + z_94 + z_95 + z_96 + z_97 + z_98 + z_99 + z_100 + z_101 + z_102 + z_103 + z_104 + z_105 + z_106 + z_107 + z_108 + z_109 + z_110 + z_111 + z_112 + z_113 + z_114 + z_115 + z_116 + z_117 + z_118 + z_119 + z_120 + z_121 + z_122 + z_123 + z_124 + z_125 + z_126 + z_127 + z_128 + z_129 + z_130 + z_131 + z_132 + z_133 + z_134 + z_135 + z_136 + z_137 + z_138 + z_139 + z_140 + z_141 + z_142 + z_143 + z_144 + z_145 + z_146 + z_147 + z_148 + z_149 + z_150 + z_151 + z_152 + z_153 + z_154 + z_155 + z_156 + z_157 + z_158 + z_159 + z_160 + z_161 + z_162 + z_163 + z_164 + z_165 + z_166 + z_167 + z_168 + z_169 + z_170 + z_171 + z_172 + z_173 + z_174 + z_175 + z_176 + z_177 + z_178 + z_179 + z_180 + z_181 + z_182 + z_183 + z_184 + z_185 + z_186 + z_187 + z_188 + z_189 + z_190 + z_191 + z_192 + z_193 + z_194 + z_195 + z_196 + z_197 + z_198 + z_199 + z_200 + z_201 + z_202 + z_203 + z_204 + z_205 + z_206 + z_207 + z_208 + z_209 + z_210 + z_211 + z_212 + z_213 + z_214 + z_215 + z_216 + z_217 + z_218 + z_219 + z_220 + z_221 + z_222 + z_223 + z_224 + z_225 + z_226 + z_227 + z_228 + z_229 + z_230 + z_231 + z_232 + z_233 + z_234 + z_235 + z_236 + z_237 + z_238 + z_239 + z_240 + z_241 + z_242 + z_243 + z_244 + z_245 + z_246 + z_247 + z_248 + z_249 + z_250 + z_251 + z_252 + z_253 + z_254 + z_255 = 1
 budget_prob_catastrophic: 0.251088 z_0 + 0.120216 z_1 + 0.078096 z_2 + 0.629032 z_3 + 0.120216 z_4 + 0.078096 z_5 + 0.03348 z_6 + 0.33252 z_7 + 0.078096 z_8 + 0.03348 z_9 + 0.016632 z_10 + 0.174336 z_11 + 0.629032 z_12 + 0.33252 z_13 + 0.174336 z_14 + 0.629032 z_15 + 0.120216 z_16 + 0.078096 z_17 + 0.03348 z_18 + 0.33252 z_19 + 0.078096 z_20 + 0.03348 z_21 + 0.016632 z_22 + 0.174336 z_23 + 0.03348 z_24 + 0.016632 z_25 + 0.004752 z_26 + 0.078096 z_27 + 0.33252 z_28 + 0.174336 z_29 + 0.078096 z_30 + 0.629032 z_31 + 0.078096 z_32 + 0.03348 z_33 + 0.016632 z_34 + 0.174336 z_35 + 0.03348 z_36 + 0.016632 z_37 + 0.004752 z_38 + 0.078096 z_39 + 0.016632 z_40 + 0.004752 z_41 + 0.004752 z_42 + 0.03348 z_43 + 0.174336 z_44 + 0.078096 z_45 + 0.03348 z_46 + 0.33252 z_47 + 0.629032 z_48 + 0.33252 z_49 + 0.174336 z_50 + 0.629032 z_51 + 0.33252 z_52 + 0.174336 z_53 + 0.078096 z_54 + 0.629032 z_55 + 0.174336 z_56 + 0.078096 z_57 + 0.03348 z_58 + 0.33252 z_59 + 0.629032 z_60 + 0.629032 z_61 + 0.33252 z_62 + 1 z_63 + 0.120216 z_64 + 0.078096 z_65 + 0.03348 z_66 + 0.33252 z_67 + 0.078096 z_68 + 0.03348 z_69 + 0.016632 z_70 + 0.174336 z_71 + 0.03348 z_72 + 0.016632 z_73 + 0.004752 z_74 + 0.078096 z_75 + 0.33252 z_76 + 0.174336 z_77 + 0.078096 z_78 + 0.629032 z_79 + 0.078096 z_80 + 0.03348 z_81 + 0.016632 z_82 + 0.174336 z_83 + 0.03348 z_84 + 0.016632 z_85 + 0.004752 z_86 + 0.120216 z_87 + 0.016632 z_88 + 0.004752 z_89 + 0.004752 z_90 + 0.055128 z_91 + 0.174336 z_92 + 0.120216 z_93 + 0.055128 z_94 + 0.33252 z_95 + 0.03348 z_96 + 0.016632 z_97 + 0.004752 z_98 + 0.078096 z_99 + 0.016632 z_100 + 0.004752 z_101 + 0.004752 z_102 + 0.055128 z_103 + 0.004752 z_104 + 0.004752 z_105 + 0 z_106 + 0.016632 z_107 + 0.078096 z_108 + 0.055128 z_109 + 0.016632 z_110 + 0.251088 z_111 + 0.33252 z_112 + 0.174336 z_113 + 0.078096 z_114 + 0.629032 z_115 + 0.174336 z_116 + 0.120216 z_117 + 0.055128 z_118 + 0.33252 z_119 + 0.078096 z_120 + 0.055128 z_121 + 0.016632 z_122 + 0.251088 z_123 + 0.629032 z_124 + 0.33252 z_125 + 0.251088 z_126 + 1 z_127 + 0.078096 z_128 + 0.03348 z_129 + 0.016632 z_130 + 0.174336 z_131 + 0.03348 z_132 + 0.016632 z_133 + 0.004752 z_134 + 0.078096 z_135 + 0.016632 z_136 + 0.004752 z_137 + 0.004752 z_138 + 0.03348 z_139 + 0.174336 z_140 + 0.078096 z_141 + 0.03348 z_142 + 0.33252 z_143 + 0.03348 z_144 + 0.016632 z_145 + 0.004752 z_146 + 0.078096 z_147 + 0.016632 z_148 + 0.004752 z_149 + 0.004752 z_150 + 0.055128 z_151 + 0.004752 z_152 + 0.004752 z_153 + 0 z_154 + 0.016632 z_155 + 0.078096 z_156 + 0.055128 z_157 + 0.016632 z_158 + 0.174336 z_159 + 0.016632 z_160 + 0.004752 z_161 + 0.004752 z_162 + 0.03348 z_163 + 0.004752 z_164 + 0.004752 z_165 + 0 z_166 + 0.016632 z_167 + 0.004752 z_168 + 0 z_169 + 0 z_170 + 0.004752 z_171 + 0.03348 z_172 + 0.016632 z_173 + 0.004752 z_174 + 0.120216 z_175 + 0.174336 z_176 + 0.078096 z_177 + 0.03348 z_178 + 0.33252 z_179 + 0.078096 z_180 + 0.055128 z_181 + 0.016632 z_182 + 0.251088 z_183 + 0.03348 z_184 + 0.016632 z_185 + 0.004752 z_186 + 0.120216 z_187 + 0.33252 z_188 + 0.251088 z_189 + 0.120216 z_190 + 0.629032 z_191 + 0.629032 z_192 + 0.33252 z_193 + 0.174336 z_194 + 0.629032 z_195 + 0.33252 z_196 + 0.174336 z_197 + 0.078096 z_198 + 0.629032 z_199 + 0.174336 z_200 + 0.078096 z_201 + 0.03348 z_202 + 0.33252 z_203 + 0.629032 z_204 + 0.629032 z_205 + 0.33252 z_206 + 1 z_207 + 0.33252 z_208 + 0.174336 z_209 + 0.078096 z_210 + 0.629032 z_211 + 0.174336 z_212 + 0.120216 z_213 + 0.055128 z_214 + 0.33252 z_215 + 0.078096 z_216 + 0.055128 z_217 + 0.016632 z_218 + 0.251088 z_219 + 0.629032 z_220 + 0.33252 z_221 + 0.251088 z_222 + 1 z_223 + 0.174336 z_224 + 0.078096 z_225 + 0.03348 z_226 + 0.33252 z_227 + 0.078096 z_228 + 0.055128 z_229 + 0.016632 z_230 + 0.251088 z_231 + 0.03348 z_232 + 0.016632 z_233 + 0.004752 z_234 + 0.120216 z_235 + 0.33252 z_236 + 0.251088 z_237 + 0.120216 z_238 + 0.629032 z_239 + 0.629032 z_240 + 0.629032 z_241 + 0.33252 z_242 + 1 z_243 + 0.629032 z_244 + 0.33252 z_245 + 0.251088 z_246 + 1 z_247 + 0.33252 z_248 + 0.251088 z_249 + 0.120216 z_250 + 0.629032 z_251 + 1 z_252 + 1 z_253 + 0.629032 z_254 + 1 z_255 <= 0.075
 budget_prob_degraded: 0 z_0 + 0 z_1 + 0.24 z_2 + 0 z_3 + 0 z_4 + 0.24 z_5 + 0.24 z_6 + 0 z_7 + 0.24 z_8 + 0.24 z_9 + 0.24 z_10 + 0 z_11 + 0 z_12 + 0 z_13 + 0 z_14 + 0 z_15 + 0 z_16 + 0.24 z_17 + 0.24 z_18 + 0 z_19 + 0.24 z_20 + 0.24 z_21 + 0.24 z_22 + 0 z_23 + 0.24 z_24 + 0.24 z_25 + 0.4072 z_26 + 0.24 z_27 + 0 z_28 + 0 z_29 + 0.24 z_30 + 0 z_31 + 0.24 z_32 + 0.24 z_33 + 0.24 z_34 + 0 z_35 + 0.24 z_36 + 0.24 z_37 + 0.4072 z_38 + 0.24 z_39 + 0.24 z_40 + 0.4072 z_41 + 1 z_42 + 0.24 z_43 + 0 z_44 + 0.24 z_45 + 0.24 z_46 + 0 z_47 + 0 z_48 + 0 z_49 + 0 z_50 + 0 z_51 + 0 z_52 + 0 z_53 + 0.24 z_54 + 0 z_55 + 0 z_56 + 0.24 z_57 + 0.24 z_58 + 0 z_59 + 0 z_60 + 0 z_61 + 0 z_62 + 0 z_63 + 0 z_64 + 0.24 z_65 + 0.24 z_66 + 0 z_67 + 0.24 z_68 + 0.24 z_69 + 0.24 z_70 + 0 z_71 + 0.24 z_72 + 0.24 z_73 + 0.4072 z_74 + 0.24 z_75 + 0 z_76 + 0 z_77 + 0.24 z_78 + 0 z_79 + 0.24 z_80 + 0.24 z_81 + 0.24 z_82 + 0 z_83 + 0.24 z_84 + 0.24 z_85 + 0.24 z_86 + 0.24 z_87 + 0.24 z_88 + 0.24 z_89 + 1 z_90 + 0.24 z_91 + 0 z_92 + 0.24 z_93 + 0.24 z_94 + 0 z_95 + 0.24 z_96 + 0.24 z_97 + 0.4072 z_98 + 0.24 z_99 + 0.24 z_100 + 0.24 z_101 + 1 z_102 + 0.24 z_103 + 0.4072 z_104 + 1 z_105 + 1 z_106 + 0.24 z_107 + 0.24 z_108 + 0.24 z_109 + 0.24 z_110 + 0 z_111 + 0 z_112 + 0 z_113 + 0.24 z_114 + 0 z_115 + 0 z_116 + 0.24 z_117 + 0.24 z_118 + 0 z_119 + 0.24 z_120 + 0.24 z_121 + 0.24 z_122 + 0 z_123 + 0 z_124 + 0 z_125 + 0 z_126 + 0 z_127 + 0.24 z_128 + 0.24 z_129 + 0.24 z_130 + 0 z_131 + 0.24 z_132 + 0.24 z_133 + 0.4072 z_134 + 0.24 z_135 + 0.24 z_136 + 0.4072 z_137 + 1 z_138 + 0.24 z_139 + 0 z_140 + 0.24 z_141 + 0.24 z_142 + 0 z_143 + 0.24 z_144 + 0.24 z_145 + 0.4072 z_146 + 0.24 z_147 + 0.24 z_148 + 0.24 z_149 + 1 z_150 + 0.24 z_151 + 0.4072 z_152 + 1 z_153 + 1 z_154 + 0.24 z_155 + 0.24 z_156 + 0.24 z_157 + 0.24 z_158 + 0 z_159 + 0.24 z_160 + 0.4072 z_161 + 1 z_162 + 0.24 z_163 + 0.4072 z_164 + 1 z_165 + 1 z_166 + 0.24 z_167 + 1 z_168 + 1 z_169 + 1 z_170 + 0.4072 z_171 + 0.24 z_172 + 0.24 z_173 + 0.4072 z_174 + 0.24 z_175 + 0 z_176 + 0.24 z_177 + 0.24 z_178 + 0 z_179 + 0.24 z_180 + 0.24 z_181 + 0.24 z_182 + 0 z_183 + 0.24 z_184 + 0.24 z_185 + 0.4072 z_186 + 0.24 z_187 + 0 z_188 + 0 z_189 + 0.24 z_190 + 0 z_191 + 0 z_192 + 0 z_193 + 0.0528 z_194 + 0 z_195 + 0 z_196 + 0 z_197 + 0.24 z_198 + 0 z_199 + 0.0528 z_200 + 0.24 z_201 + 0.24 z_202 + 0 z_203 + 0 z_204 + 0 z_205 + 0 z_206 + 0 z_207 + 0 z_208 + 0 z_209 + 0.24 z_210 + 0 z_211 + 0 z_212 + 0.24 z_213 + 0.24 z_214 + 0 z_215 + 0.24 z_216 + 0.24 z_217 + 0.24 z_218 + 0.0528 z_219 + 0 z_220 + 0 z_221 + 0.0528 z_222 + 0 z_223 + 0.0528 z_224 + 0.24 z_225 + 0.24 z_226 + 0 z_227 + 0.24 z_228 + 0.24 z_229 + 0.24 z_230 + 0.0528 z_231 + 0.24 z_232 + 0.24 z_233 + 1 z_234 + 0.24 z_235 + 0 z_236 + 0.0528 z_237 + 0.24 z_238 + 0 z_239 + 0 z_240 + 0 z_241 + 0 z_242 + 0 z_243 + 0 z_244 + 0 z_245 + 0.24 z_246 + 0 z_247 + 0 z_248 + 0.24 z_249 + 0.24 z_250 + 0 z_251 + 0 z_252 + 0 z_253 + 0 z_254 + 0 z_255 <= 0.3
 budget_prob_rejected: 0.120216 z_0 + 0.078096 z_1 + 0.2654448 z_2 + 0.251088 z_3 + 0.078096 z_4 + 0.2654448 z_5 + 0.25264032 z_6 + 0.174336 z_7 + 0.2654448 z_8 + 0.25264032 z_9 + 0.24361152 z_10 + 0.078096 z_11 + 0.251088 z_12 + 0.174336 z_13 + 0.078096 z_14 + 0.629032 z_15 + 0.078096 z_16 + 0.2654448 z_17 + 0.25264032 z_18 + 0.174336 z_19 + 0.2654448 z_20 + 0.25264032 z_21 + 0.24361152 z_22 + 0.078096 z_23 + 0.25264032 z_24 + 0.24361152 z_25 + 0.4072 z_26 + 0.2654448 z_27 + 0.174336 z_28 + 0.078096 z_29 + 0.2654448 z_30 + 0.33252 z_31 + 0.2654448 z_32 + 0.25264032 z_33 + 0.24361152 z_34 + 0.078096 z_35 + 0.25264032 z_36 + 0.24361152 z_37 + 0.4072 z_38 + 0.2654448 z_39 + 0.24361152 z_40 + 0.4072 z_41 + 1 z_42 + 0.25264032 z_43 + 0.078096 z_44 + 0.2654448 z_45 + 0.25264032 z_46 + 0.251088 z_47 + 0.251088 z_48 + 0.174336 z_49 + 0.078096 z_50 + 0.629032 z_51 + 0.174336 z_52 + 0.078096 z_53 + 0.2654448 z_54 + 0.33252 z_55 + 0.078096 z_56 + 0.2654448 z_57 + 0.25264032 z_58 + 0.251088 z_59 + 0.629032 z_60 + 0.33252 z_61 + 0.251088 z_62 + 1 z_63 + 0.078096 z_64 + 0.2654448 z_65 + 0.25264032 z_66 + 0.174336 z_67 + 0.2654448 z_68 + 0.25264032 z_69 + 0.24361152 z_70 + 0.078096 z_71 + 0.25264032 z_72 + 0.24361152 z_73 + 0.4072 z_74 + 0.2654448 z_75 + 0.174336 z_76 + 0.078096 z_77 + 0.2654448 z_78 + 0.33252 z_79 + 0.2654448 z_80 + 0.25264032 z_81 + 0.24361152 z_82 + 0.078096 z_83 + 0.25264032 z_84 + 0.24361152 z_85 + 0.24361152 z_86 + 0.28189728 z_87 + 0.24361152 z_88 + 0.24361152 z_89 + 1 z_90 + 0.25264032 z_91 + 0.078096 z_92 + 0.28189728 z_93 + 0.25264032 z_94 + 0.251088 z_95 + 0.25264032 z_96 + 0.24361152 z_97 + 0.4072 z_98 + 0.2654448 z_99 + 0.24361152 z_100 + 0.24361152 z_101 + 1 z_102 + 0.25264032 z_103 + 0.4072 z_104 + 1 z_105 + 1 z_106 + 0.24361152 z_107 + 0.2654448 z_108 + 0.25264032 z_109 + 0.24361152 z_110 + 0.120216 z_111 + 0.174336 z_112 + 0.078096 z_113 + 0.2654448 z_114 + 0.33252 z_115 + 0.078096 z_116 + 0.28189728 z_117 + 0.25264032 z_118 + 0.251088 z_119 + 0.2654448 z_120 + 0.25264032 z_121 + 0.24361152 z_122 + 0.120216 z_123 + 0.33252 z_124 + 0.251088 z_125 + 0.120216 z_126 + 0.629032 z_127 + 0.2654448 z_128 + 0.25264032 z_129 + 0.24361152 z_130 + 0.078096 z_131 + 0.25264032 z_132 + 0.24361152 z_133 + 0.4072 z_134 + 0.2654448 z_135 + 0.24361152 z_136 + 0.4072 z_137 + 1 z_138 + 0.25264032 z_139 + 0.078096 z_140 + 0.2654448 z_141 + 0.25264032 z_142 + 0.251088 z_143 + 0.25264032 z_144 + 0.24361152 z_145 + 0.4072 z_146 + 0.2654448 z_147 + 0.24361152 z_148 + 0.24361152 z_149 + 1 z_150 + 0.25264032 z_151 + 0.4072 z_152 + 1 z_153 + 1 z_154 + 0.24361152 z_155 + 0.2654448 z_156 + 0.25264032 z_157 + 0.24361152 z_158 + 0.120216 z_159 + 0.24361152 z_160 + 0.4072 z_161 + 1 z_162 + 0.25264032 z_163 + 0.4072 z_164 + 1 z_165 + 1 z_166 + 0.24361152 z_167 + 1 z_168 + 1 z_169 + 1 z_170 + 0.4072 z_171 + 0.25264032 z_172 + 0.24361152 z_173 + 0.4072 z_174 + 0.28189728 z_175 + 0.078096 z_176 + 0.2654448 z_177 + 0.25264032 z_178 + 0.251088 z_179 + 0.2654448 z_180 + 0.25264032 z_181 + 0.24361152 z_182 + 0.120216 z_183 + 0.25264032 z_184 + 0.24361152 z_185 + 0.4072 z_186 + 0.28189728 z_187 + 0.251088 z_188 + 0.120216 z_189 + 0.28189728 z_190 + 0.33252 z_191 + 0.251088 z_192 + 0.174336 z_193 + 0.11619648 z_194 + 0.629032 z_195 + 0.174336 z_196 + 0.078096 z_197 + 0.2654448 z_198 + 0.33252 z_199 + 0.11619648 z_200 + 0.2654448 z_201 + 0.25264032 z_202 + 0.251088 z_203 + 0.629032 z_204 + 0.33252 z_205 + 0.251088 z_206 + 1 z_207 + 0.174336 z_208 + 0.078096 z_209 + 0.2654448 z_210 + 0.33252 z_211 + 0.078096 z_212 + 0.28189728 z_213 + 0.25264032 z_214 + 0.251088 z_215 + 0.2654448 z_216 + 0.25264032 z_217 + 0.24361152 z_218 + 0.15831648 z_219 + 0.33252 z_220 + 0.251088 z_221 + 0.15831648 z_222 + 0.629032 z_223 + 0.11619648 z_224 + 0.2654448 z_225 + 0.25264032 z_226 + 0.251088 z_227 + 0.2654448 z_228 + 0.25264032 z_229 + 0.24361152 z_230 + 0.15831648 z_231 + 0.25264032 z_232 + 0.24361152 z_233 + 1 z_234 + 0.28189728 z_235 + 0.251088 z_236 + 0.15831648 z_237 + 0.28189728 z_238 + 0.33252 z_239 + 0.629032 z_240 + 0.33252 z_241 + 0.251088 z_242 + 1 z_243 + 0.33252 z_244 + 0.251088 z_245 + 0.33136416 z_246 + 0.629032 z_247 + 0.251088 z_248 + 0.33136416 z_249 + 0.28189728 z_250 + 0.33252 z_251 + 1 z_252 + 0.629032 z_253 + 0.33252 z_254 + 1 z_255 <= 0.36
 budget_prob_shortage: 0.120216 z_0 + 0.078096 z_1 + 0.2654448 z_2 + 0.251088 z_3 + 0.078096 z_4 + 0.2654448 z_5 + 0.25264032 z_6 + 0.174336 z_7 + 0.2654448 z_8 + 0.25264032 z_9 + 0.24361152 z_10 + 0.078096 z_11 + 0.251088 z_12 + 0.174336 z_13 + 0.078096 z_14 + 0.629032 z_15 + 0.078096 z_16 + 0.2654448 z_17 + 0.25264032 z_18 + 0.174336 z_19 + 0.2654448 z_20 + 0.25264032 z_21 + 0.24361152 z_22 + 0.078096 z_23 + 0.25264032 z_24 + 0.24361152 z_25 + 0.4072 z_26 + 0.2654448 z_27 + 0.174336 z_28 + 0.078096 z_29 + 0.2654448 z_30 + 0.33252 z_31 + 0.2654448 z_32 + 0.25264032 z_33 + 0.24361152 z_34 + 0.078096 z_35 + 0.25264032 z_36 + 0.24361152 z_37 + 0.4072 z_38 + 0.2654448 z_39 + 0.24361152 z_40 + 0.4072 z_41 + 1 z_42 + 0.25264032 z_43 + 0.078096 z_44 + 0.2654448 z_45 + 0.25264032 z_46 + 0.251088 z_47 + 0.251088 z_48 + 0.174336 z_49 + 0.078096 z_50 + 0.629032 z_51 + 0.174336 z_52 + 0.078096 z_53 + 0.2654448 z_54 + 0.33252 z_55 + 0.078096 z_56 + 0.2654448 z_57 + 0.25264032 z_58 + 0.251088 z_59 + 0.629032 z_60 + 0.33252 z_61 + 0.251088 z_62 + 1 z_63 + 0.078096 z_64 + 0.2654448 z_65 + 0.25264032 z_66 + 0.174336 z_67 + 0.2654448 z_68 + 0.25264032 z_69 + 0.24361152 z_70 + 0.078096 z_71 + 0.25264032 z_72 + 0.24361152 z_73 + 0.4072 z_74 + 0.2654448 z_75 + 0.174336 z_76 + 0.078096 z_77 + 0.2654448 z_78 + 0.33252 z_79 + 0.2654448 z_80 + 0.25264032 z_81 + 0.24361152 z_82 + 0.078096 z_83 + 0.25264032 z_84 + 0.24361152 z_85 + 0.24361152 z_86 + 0.28189728 z_87 + 0.24361152 z_88 + 0.24361152 z_89 + 1 z_90 + 0.25264032 z_91 + 0.078096 z_92 + 0.28189728 z_93 + 0.25264032 z_94 + 0.251088 z_95 + 0.25264032 z_96 + 0.24361152 z_97 + 0.4072 z_98 + 0.2654448 z_99 + 0.24361152 z_100 + 0.24361152 z_101 + 1 z_102 + 0.25264032 z_103 + 0.4072 z_104 + 1 z_105 + 1 z_106 + 0.24361152 z_107 + 0.2654448 z_108 + 0.25264032 z_109 + 0.24361152 z_110 + 0.120216 z_111 + 0.174336 z_112 + 0.078096 z_113 + 0.2654448 z_114 + 0.33252 z_115 + 0.078096 z_116 + 0.28189728 z_117 + 0.25264032 z_118 + 0.251088 z_119 + 0.2654448 z_120 + 0.25264032 z_121 + 0.24361152 z_122 + 0.120216 z_123 + 0.33252 z_124 + 0.251088 z_125 + 0.120216 z_126 + 0.629032 z_127 + 0.2654448 z_128 + 0.25264032 z_129 + 0.24361152 z_130 + 0.078096 z_131 + 0.25264032 z_132 + 0.24361152 z_133 + 0.4072 z_134 + 0.2654448 z_135 + 0.24361152 z_136 + 0.4072 z_137 + 1 z_138 + 0.25264032 z_139 + 0.078096 z_140 + 0.2654448 z_141 + 0.25264032 z_142 + 0.251088 z_143 + 0.25264032 z_144 + 0.24361152 z_145 + 0.4072 z_146 + 0.2654448 z_147 + 0.24361152 z_148 + 0.24361152 z_149 + 1 z_150 + 0.25264032 z_151 + 0.4072 z_152 + 1 z_153 + 1 z_154 + 0.24361152 z_155 + 0.2654448 z_156 + 0.25264032 z_157 + 0.24361152 z_158 + 0.120216 z_159 + 0.24361152 z_160 + 0.4072 z_161 + 1 z_162 + 0.25264032 z_163 + 0.4072 z_164 + 1 z_165 + 1 z_166 + 0.24361152 z_167 + 1 z_168 + 1 z_169 + 1 z_170 + 0.4072 z_171 + 0.25264032 z_172 + 0.24361152 z_173 + 0.4072 z_174 + 0.28189728 z_175 + 0.078096 z_176 + 0.2654448 z_177 + 0.25264032 z_178 + 0.251088 z_179 + 0.2654448 z_180 + 0.25264032 z_181 + 0.24361152 z_182 + 0.120216 z_183 + 0.25264032 z_184 + 0.24361152 z_185 + 0.4072 z_186 + 0.28189728 z_187 + 0.251088 z_188 + 0.120216 z_189 + 0.28189728 z_190 + 0.33252 z_191 + 0.251088 z_192 + 0.174336 z_193 + 0.11619648 z_194 + 0.629032 z_195 + 0.174336 z_196 + 0.078096 z_197 + 0.2654448 z_198 + 0.33252 z_199 + 0.11619648 z_200 + 0.2654448 z_201 + 0.25264032 z_202 + 0.251088 z_203 + 0.629032 z_204 + 0.33252 z_205 + 0.251088 z_206 + 1 z_207 + 0.174336 z_208 + 0.078096 z_209 + 0.2654448 z_210 + 0.33252 z_211 + 0.078096 z_212 + 0.28189728 z_213 + 0.25264032 z_214 + 0.251088 z_215 + 0.2654448 z_216 + 0.25264032 z_217 + 0.24361152 z_218 + 0.15831648 z_219 + 0.33252 z_220 + 0.251088 z_221 + 0.15831648 z_222 + 0.629032 z_223 + 0.11619648 z_224 + 0.2654448 z_225 + 0.25264032 z_226 + 0.251088 z_227 + 0.2654448 z_228 + 0.25264032 z_229 + 0.24361152 z_230 + 0.15831648 z_231 + 0.25264032 z_232 + 0.24361152 z_233 + 1 z_234 + 0.28189728 z_235 + 0.251088 z_236 + 0.15831648 z_237 + 0.28189728 z_238 + 0.33252 z_239 + 0.629032 z_240 + 0.33252 z_241 + 0.251088 z_242 + 1 z_243 + 0.33252 z_244 + 0.251088 z_245 + 0.33136416 z_246 + 0.629032 z_247 + 0.251088 z_248 + 0.33136416 z_249 + 0.28189728 z_250 + 0.33252 z_251 + 1 z_252 + 0.629032 z_253 + 0.33252 z_254 + 1 z_255 <= 0.36
Binary
 z_0
 z_1
 z_2
 z_3
 z_4
 z_5
 z_6
 z_7
 z_8
 z_9
 z_10
 z_11
 z_12
 z_13
 z_14
 z_15
 z_16
 z_17
 z_18
 z_19
 z_20
 z_21
 z_22
 z_23
 z_24
 z_25
 z_26
 z_27
 z_28
 z_29
 z_30
 z_31
 z_32
 z_33
 z_34
 z_35
 z_36
 z_37
 z_38
 z_39
 z_40
 z_41
 z_42
 z_43
 z_44
 z_45
 z_46
 z_47
 z_48
 z_49
 z_50
 z_51
 z_52
 z_53
 z_54
 z_55
 z_56
 z_57
 z_58
 z_59
 z_60
 z_61
 z_62
 z_63
 z_64
 z_65
 z_66
 z_67
 z_68
 z_69
 z_70
 z_71
 z_72
 z_73
 z_74
 z_75
 z_76
 z_77
 z_78
 z_79
 z_80
 z_81
 z_82
 z_83
 z_84
 z_85
 z_86
 z_87
 z_88
 z_89
 z_90
 z_91
 z_92
 z_93
 z_94
 z_95
 z_96
 z_97
 z_98
 z_99
 z_100
 z_101
 z_102
 z_103
 z_104
 z_105
 z_106
 z_107
 z_108
 z_109
 z_110
 z_111
 z_112
 z_113
 z_114
 z_115
 z_116
 z_117
 z_118
 z_119
 z_120
 z_121
 z_122
 z_123
 z_124
 z_125
 z_126
 z_127
 z_128
 z_129
 z_130
 z_131
 z_132
 z_133
 z_134
 z_135
 z_136
 z_137
 z_138
 z_139
 z_140
 z_141
 z_142
 z_143
 z_144
 z_145
 z_146
 z_147
 z_148
 z_149
 z_150
 z_151
 z_152
 z_153
 z_154
 z_155
 z_156
 z_157
 z_158
 z_159
 z_160
 z_161
 z_162
 z_163
 z_164
 z_165
 z_166
 z_167
 z_168
 z_169
 z_170
 z_171
 z_172
 z_173
 z_174
 z_175
 z_176
 z_177
 z_178
 z_179
 z_180
 z_181
 z_182
 z_183
 z_184
 z_185
 z_186
 z_187
 z_188
 z_189
 z_190
 z_191
 z_192
 z_193
 z_194
 z_195
 z_196
 z_197
 z_198
 z_199
 z_200
 z_201
 z_202
 z_203
 z_204
 z_205
 z_206
 z_207
 z_208
 z_209
 z_210
 z_211
 z_212
 z_213
 z_214
 z_215
 z_216
 z_217
 z_218
 z_219
 z_220
 z_221
 z_222
 z_223
 z_224
 z_225
 z_226
 z_227
 z_228
 z_229
 z_230
 z_231
 z_232
 z_233
 z_234
 z_235
 z_236
 z_237
 z_238
 z_239
 z_240
 z_241
 z_242
 z_243
 z_244
 z_245
 z_246
 z_247
 z_248
 z_249
 z_250
 z_251
 z_252
 z_253
 z_254
 z_255
End
